PRECEDENCE RELATIONS:
jobnr.    #modes  #successors   successors
  1        1        2        7   2   
  2        1        2        11   3   
  3        1        2        15   4   
  4        1        1        5   
  5        1        1        6   
  6        1        0        
  7        1        2        8   9   
  8        1        1        10   
  9        1        1        10   
  10        1        2        31   11   
  11        1        2        12   13   
  12        1        1        14   
  13        1        1        14   
  14        1        2        32   19   
  15        1        2        16   17   
  16        1        1        18   
  17        1        1        18   
  18        1        2        33   23   
  19        1        2        20   21   
  20        1        1        22   
  21        1        1        22   
  22        1        2        4   15   
  23        1        2        24   25   
  24        1        1        26   
  25        1        1        26   
  26        1        2        5   27   
  27        1        2        28   29   
  28        1        1        30   
  29        1        1        30   
  30        1        1        6   
  31        1        1        34   
  32        1        1        35   
  33        1        1        36   
  34        1        2        19   32   
  35        1        2        23   33   
  36        1        1        27   
---------dummy line---------
REQUESTS/DURATIONS:
jobnr. mode duration  R 1
---------dummy line---------
  1     1     1     0 
  2     1     1     0 
  3     1     1     0 
  4     1     2     0 
  5     1     2     0 
  6     1     2     0 
  7     1     0     0 
  8     1     4     6 
  9     1     4     6 
  10     1     0     0 
  11     1     0     0 
  12     1     4     6 
  13     1     4     6 
  14     1     0     0 
  15     1     0     0 
  16     1     4     6 
  17     1     4     6 
  18     1     0     0 
  19     1     0     0 
  20     1     5     7 
  21     1     5     7 
  22     1     0     0 
  23     1     0     0 
  24     1     5     7 
  25     1     5     7 
  26     1     0     0 
  27     1     0     0 
  28     1     5     7 
  29     1     5     7 
  30     1     0     0 
  31     1     5     0 
  32     1     5     0 
  33     1     5     0 
  34     1     6     0 
  35     1     6     0 
  36     1     6     0 
---------dummy line---------
RESOURCEAVAILABILITIES:
   R 1   
   7   
---------dummy end---------
